(set-info :origin "SVCOMP13 benchmarks generated by Arie Gurfinkel")
(set-logic HORN)
(declare-fun cp-rel-bb.i65.i.outer19
             (Real Real Real Real Real Real Real Real)
             Bool)
(declare-fun cp-rel-entry () Bool)
(declare-fun cp-rel-__UFO__0
             (Real
              Real
              Real
              Real
              Real
              Real
              Real
              Real
              Real
              Real
              Real
              Real
              Real
              Real
              Real
              Real
              Bool
              Real
              Real
              Real
              Real
              Real
              Real
              Real
              Bool
              Bool)
             Bool)
(declare-fun cp-rel-ERROR.i.i.i.i () Bool)
(declare-fun cp-rel-bb.i65.i
             (Real
              Real
              Real
              Real
              Real
              Real
              Real
              Real
              Real
              Bool
              Real
              Real
              Real
              Real
              Real
              Real
              Real)
             Bool)
(declare-fun cp-rel-bb.i (Real Real Real Real Real Real Real Real) Bool)
(assert |cp-rel-entry|)
(assert (forall ((?A Real) (?B Real) (?C Real) (?D Real) (?E Real) (?F Real) (?G Real) (?H Real) (?I Bool) )(let (($x213542 (= ?I true)))
(let (($x860014 (and |cp-rel-entry| (<= ?H 0.0) (>= ?G 0.0) (<= ?G 0.0) (>= ?F 0.0) (<= ?F 0.0) (>= ?E 0.0) (<= ?E 0.0) (>= ?D 0.0) (<= ?D 0.0) (>= ?C 0.0) (<= ?C 0.0) (>= ?B 0.0) (<= ?B 0.0) (>= ?A 0.0) (<= ?A 0.0) $x213542 (>= ?H 0.0))))
(=> $x860014 (|cp-rel-bb.i| ?A ?B ?C ?D ?E ?F ?G ?H)))))
)
(assert (forall ((?A Real) (?B Real) (?C Real) (?D Real) (?E Real) (?F Real) (?G Real) (?H Real) (?I Real) (?J Real) (?K Real) (?L Real) (?M Real) (?N Real) (?O Real) (?P Real) (?Q Real) (?R Bool) (?S Real) (?T Real) (?U Real) (?V Real) (?W Real) (?X Real) (?Y Real) (?Z Bool) (?A1 Bool) (?B1 Bool) (?C1 Bool) (?D1 Bool) (?E1 Bool) (?F1 Bool) (?G1 Bool) (?H1 Bool) (?I1 Bool) (?J1 Bool) (?K1 Bool) (?L1 Bool) (?M1 Bool) (?N1 Bool) (?O1 Bool) (?P1 Bool) (?Q1 Bool) )(let (($x332926 (not ?G1)))
(let (($x214448 (or $x332926 ?H1)))
(let (($x439357 (|cp-rel-bb.i65.i| ?I ?J ?K ?L ?M ?N ?O ?P ?Q ?R ?S ?T ?U ?V ?W ?X ?Y)))
(let (($x787087 (and $x439357 (= ?Q1 ?N1) (= ?I1 ?P1) (= ?P1 (or ?N1 ?O1)) (= ?F1 (or ?O1 ?N1)) (= ?O1 (= ?W 0.0)) (= ?N1 (= ?V 0.0)) (= ?C1 (= ?U 0.0)) (>= ?H ?Y) (<= ?H ?Y) (>= ?G ?X) (<= ?G ?X) (>= ?F ?Q) (<= ?F ?Q) (>= ?E ?W) (<= ?E ?W) (>= ?D ?V) (<= ?D ?V) (>= ?C ?U) (<= ?C ?U) (>= ?B ?T) (<= ?B ?T) (>= ?A ?S) (<= ?A ?S) (= ?M1 true) (= ?J1 true) (or (not ?J1) (and ?K1 (not ?L1)) (and ?L1 (not ?K1))) (or (not ?J1) (and ?G1 ?K1) (and ?D1 ?L1 ?I1)) $x214448 (or $x332926 (and ?D1 ?H1 (not ?I1))) (or (not ?D1) ?E1) (or (not ?D1) (and ?Z ?E1 (not ?F1))) (or (not ?Z) ?B1) (or (not ?Z) (and ?A1 ?B1 (not ?C1))) (= ?M1 (or ?Q1 ?O1)))))
(=> $x787087 (|cp-rel-bb.i| ?A ?B ?C ?D ?E ?F ?G ?H)))))))
)
(assert (forall ((?A Real) (?B Real) (?C Real) (?D Real) (?E Real) (?F Real) (?G Real) (?H Real) (?I Real) (?J Real) (?K Real) (?L Real) (?M Real) (?N Real) (?O Real) (?P Real) (?Q Bool) )(let (($x279075 (|cp-rel-bb.i65.i.outer19| ?I ?J ?K ?L ?M ?N ?O ?P)))
(let (($x213542 (= ?Q true)))
(let (($x584581 (and (|cp-rel-bb.i| ?A ?B ?C ?D ?E ?F ?G ?H) (<= ?P ?H) (>= ?O ?G) (<= ?O ?G) (>= ?N ?F) (<= ?N ?F) (>= ?M ?E) (<= ?M ?E) (>= ?L ?D) (<= ?L ?D) (>= ?K ?C) (<= ?K ?C) (>= ?J ?B) (<= ?J ?B) (>= ?I ?A) (<= ?I ?A) $x213542 (>= ?P ?H))))
(=> $x584581 $x279075)))))
)
(assert (forall ((?A Real) (?B Real) (?C Real) (?D Real) (?E Real) (?F Real) (?G Real) (?H Real) (?I Real) (?J Bool) (?K Real) (?L Real) (?M Real) (?N Real) (?O Real) (?P Real) (?Q Real) (?R Bool) (?S Bool) (?T Bool) (?U Bool) (?V Bool) (?W Bool) (?X Bool) (?Y Real) (?Z Real) (?A1 Real) (?B1 Real) (?C1 Real) (?D1 Real) (?E1 Real) (?F1 Real) (?G1 Bool) (?H1 Bool) (?I1 Bool) (?J1 Bool) (?K1 Bool) (?L1 Bool) (?M1 Bool) (?N1 Bool) (?O1 Bool) (?P1 Bool) (?Q1 Bool) (?R1 Bool) (?S1 Bool) (?T1 Bool) (?U1 Real) (?V1 Real) (?W1 Real) (?X1 Real) (?Y1 Real) (?Z1 Real) (?A2 Real) (?B2 Bool) (?C2 Bool) (?D2 Bool) (?E2 Bool) (?F2 Bool) (?G2 Bool) (?H2 Bool) (?I2 Bool) (?J2 Bool) (?K2 Bool) (?L2 Bool) (?M2 Bool) (?N2 Bool) (?O2 Real) (?P2 Real) (?Q2 Real) (?R2 Real) (?S2 Real) (?T2 Real) (?U2 Bool) (?V2 Bool) (?W2 Bool) (?X2 Bool) (?Y2 Bool) (?Z2 Bool) (?A3 Bool) (?B3 Bool) (?C3 Bool) (?D3 Bool) (?E3 Bool) (?F3 Real) (?G3 Real) (?H3 Real) (?I3 Real) (?J3 Bool) (?K3 Real) (?L3 Real) (?M3 Bool) )(let (($x378022 (not ?G1)))
(let (($x312336 (or $x378022 ?H1)))
(let (($x535626 (or (not ?I1) (and ?G1 ?J1 (not ?K1)))))
(let (($x325477 (or (not ?I1) ?J1)))
(let (($x84405 (or (not ?L1) (and ?I1 ?M1 ?N1))))
(let (($x295061 (or (not ?L1) ?M1)))
(let (($x106787 (or (not ?O1) (and ?L1 ?P1 ?Q1) (and ?I1 ?R1 (not ?N1)))))
(let (($x494349 (or (not ?O1) (and ?P1 (not ?R1)) (and ?R1 (not ?P1)))))
(let (($x444682 (and ?R ?C2 ?V (<= ?U1 ?K) (>= ?U1 ?K) (<= ?W1 ?L) (>= ?W1 ?L) (<= ?X1 ?M) (>= ?X1 ?M) (<= ?Y1 ?N) (>= ?Y1 ?N) (<= ?A2 ?Q) (>= ?A2 ?Q))))
(let (($x60937 (and ?G1 ?B2 ?K1 (<= ?U1 ?K) (>= ?U1 ?K) (<= ?W1 ?L) (>= ?W1 ?L) (<= ?X1 ?M) (>= ?X1 ?M) (<= ?Y1 ?N) (>= ?Y1 ?N) (<= ?A2 ?Q) (>= ?A2 ?Q))))
(let (($x428335 (and ?O1 ?T1 (<= ?U1 ?V1) (>= ?U1 ?V1) (<= ?W1 ?V1) (>= ?W1 ?V1) (<= ?X1 2.0) (>= ?X1 2.0) (<= ?Y1 ?Z1) (>= ?Y1 ?Z1) (<= ?A2 1.0) (>= ?A2 1.0))))
(let (($x252143 (not ?S1)))
(let (($x612021 (or $x252143 (and ?T1 (not ?B2) (not ?C2)) (and ?B2 (not ?T1) (not ?C2)) (and ?C2 (not ?T1) (not ?B2)))))
(let (($x384407 (or (not ?D2) (and ?S1 ?E2 ?F2))))
(let (($x336909 (or (not ?D2) ?E2)))
(let (($x285391 (or (not ?G2) (and ?D2 ?H2 (not ?I2)))))
(let (($x315875 (or (not ?G2) ?H2)))
(let (($x900124 (or (not ?J2) (and ?G2 ?K2 ?L2))))
(let (($x367777 (or (not ?J2) ?K2)))
(let (($x423117 (>= ?R2 ?O)))
(let (($x462259 (<= ?R2 ?O)))
(let (($x595220 (>= ?Q2 ?Y1)))
(let (($x444700 (<= ?Q2 ?Y1)))
(let (($x463883 (>= ?O2 ?U1)))
(let (($x520567 (<= ?O2 ?U1)))
(let (($x222597 (and ?S1 ?W2 (not ?F2) $x520567 $x463883 $x444700 $x595220 $x462259 $x423117 (<= ?T2 ?P) (>= ?T2 ?P))))
(let (($x305048 (and ?D2 ?V2 ?I2 $x520567 $x463883 $x444700 $x595220 $x462259 $x423117 (<= ?T2 ?P) (>= ?T2 ?P))))
(let (($x224736 (>= ?T2 1.0)))
(let (($x612693 (<= ?T2 1.0)))
(let (($x537063 (>= ?Q2 2.0)))
(let (($x3680 (<= ?Q2 2.0)))
(let (($x170833 (and ?J2 ?N2 (<= ?O2 ?P2) (>= ?O2 ?P2) $x3680 $x537063 (<= ?R2 ?S2) (>= ?R2 ?S2) $x612693 $x224736)))
(let (($x845668 (not ?M2)))
(let (($x526473 (or $x845668 $x170833 (and ?G2 ?U2 (not ?L2) $x520567 $x463883 $x3680 $x537063 $x462259 $x423117 $x612693 $x224736) $x305048 $x222597)))
(let (($x623995 (or $x845668 (and ?N2 (not ?U2) (not ?V2) (not ?W2)) (and ?U2 (not ?N2) (not ?V2) (not ?W2)) (and ?V2 (not ?N2) (not ?U2) (not ?W2)) (and ?W2 (not ?N2) (not ?U2) (not ?V2)))))
(let (($x241707 (not ?X2)))
(let (($x417804 (or $x241707 (and ?M2 ?Y2 ?Z2))))
(let (($x621787 (or $x241707 ?Y2)))
(let (($x131064 (and ?A3 (not ?J) (<= ?Y ?O2) (>= ?Y ?O2) (<= ?Z ?W1) (>= ?Z ?W1) (<= ?A1 ?X1) (>= ?A1 ?X1) (<= ?B1 ?Q2) (>= ?B1 ?Q2) (<= ?C1 2.0) (>= ?C1 2.0) (<= ?D1 1.0) (>= ?D1 1.0) (<= ?E1 ?T2) (>= ?E1 ?T2) (<= ?F1 ?A2) (>= ?F1 ?A2))))
(let (($x361792 (and ?D3 (<= ?Y ?F3) (>= ?Y ?F3) (<= ?Z ?W1) (>= ?Z ?W1) (<= ?A1 ?G3) (>= ?A1 ?G3) (<= ?B1 ?Q2) (>= ?B1 ?Q2) (<= ?C1 2.0) (>= ?C1 2.0) (<= ?D1 1.0) (>= ?D1 1.0) (<= ?E1 ?T2) (>= ?E1 ?T2) (<= ?F1 ?A2) (>= ?F1 ?A2))))
(let (($x342539 (= ?F2 (= ?Y1 0.0))))
(let (($x455710 (= ?P2 (+ 1.0 ?U1))))
(let (($x98499 (= ?Z2 (= ?R2 0.0))))
(let (($x153509 (|cp-rel-bb.i65.i| ?A ?B ?C ?D ?E ?F ?G ?H ?I ?J ?K ?L ?M ?N ?O ?P ?Q)))
(let (($x322754 (and $x153509 (= ?M3 (= ?A2 1.0)) (= ?F3 (+ 1.0 ?O2)) (= ?C3 (= ?L3 0.0)) $x98499 (= ?S2 (ite ?J 0.0 ?O)) $x455710 (= ?L2 (= ?P 1.0)) (= ?I2 (= ?K3 0.0)) $x342539 (= ?Z1 (ite ?J3 0.0 ?N)) (= ?J3 (= ?P 1.0)) (= ?Q1 (= ?I3 ?K)) (= ?I3 (+ 2.0 ?L)) (= ?N1 (= ?Q 1.0)) (= ?V (or ?X ?W)) (= ?X (= ?O 0.0)) (= ?W (= ?N 0.0)) (= ?K1 (= ?H3 0.0)) (= ?U (= ?M 0.0)) (or $x361792 $x131064) (or (not ?D3) ?E3) (or (not ?D3) (and ?A3 ?E3 ?J)) (or (not ?A3) ?B3) (or (not ?A3) (and ?X2 ?B3 (not ?C3))) $x621787 $x417804 $x623995 $x526473 $x367777 $x900124 $x315875 $x285391 $x336909 $x384407 $x612021 (or $x252143 $x428335 $x60937 $x444682) $x494349 $x106787 $x295061 $x84405 $x325477 $x535626 (or (not ?R) ?T) (or (not ?R) (and ?S ?T (not ?U))) $x312336 (or $x378022 (and ?S ?H1 ?U)) (= ?G3 (ite ?M3 0.0 ?X1)))))
(=> $x322754 (|cp-rel-bb.i65.i.outer19| ?Y ?Z ?A1 ?B1 ?C1 ?D1 ?E1 ?F1))))))))))))))))))))))))))))))))))))))))))))))))
)
(assert (forall ((?A Real) (?B Real) (?C Real) (?D Real) (?E Real) (?F Real) (?G Real) (?H Real) (?I Bool) (?J Real) (?K Real) (?L Real) (?M Real) (?N Real) (?O Real) (?P Real) (?Q Real) (?R Real) (?S Real) (?T Real) (?U Real) (?V Real) (?W Real) (?X Real) (?Y Bool) )(let (($x312518 (|cp-rel-bb.i65.i| ?A ?B ?C ?D ?E ?F ?G ?H ?V ?I ?J ?K ?L ?M ?N ?O ?P)))
(let (($x213542 (= ?Y true)))
(let (($x279075 (|cp-rel-bb.i65.i.outer19| ?Q ?R ?S ?T ?U ?V ?W ?X)))
(let (($x411276 (and $x279075 (>= ?P ?X) (<= ?P ?X) (>= ?O ?W) (<= ?O ?W) (>= ?N ?U) (<= ?N ?U) (>= ?M ?T) (<= ?M ?T) (>= ?L ?S) (<= ?L ?S) (>= ?K ?R) (<= ?K ?R) (>= ?J ?Q) (<= ?J ?Q) $x213542 (= ?I (= ?V 1.0)))))
(=> $x411276 $x312518))))))
)
(assert (forall ((?A Real) (?B Real) (?C Real) (?D Real) (?E Real) (?F Real) (?G Real) (?H Real) (?I Real) (?J Bool) (?K Real) (?L Real) (?M Real) (?N Real) (?O Real) (?P Real) (?Q Real) (?R Bool) (?S Bool) (?T Bool) (?U Bool) (?V Bool) (?W Bool) (?X Bool) (?Y Bool) (?Z Bool) (?A1 Bool) (?B1 Bool) (?C1 Bool) (?D1 Bool) (?E1 Bool) (?F1 Bool) (?G1 Bool) (?H1 Bool) (?I1 Bool) (?J1 Bool) (?K1 Bool) (?L1 Bool) (?M1 Real) (?N1 Real) (?O1 Real) (?P1 Real) (?Q1 Real) (?R1 Real) (?S1 Real) (?T1 Bool) (?U1 Bool) (?V1 Bool) (?W1 Bool) (?X1 Bool) (?Y1 Bool) (?Z1 Bool) (?A2 Bool) (?B2 Bool) (?C2 Bool) (?D2 Bool) (?E2 Bool) (?F2 Bool) (?G2 Real) (?H2 Real) (?I2 Real) (?J2 Real) (?K2 Real) (?L2 Real) (?M2 Bool) (?N2 Bool) (?O2 Bool) (?P2 Bool) (?Q2 Bool) (?R2 Bool) (?S2 Bool) (?T2 Real) (?U2 Real) (?V2 Bool) (?W2 Real) (?X2 Real) (?Y2 Real) (?Z2 Real) (?A3 Real) (?B3 Real) (?C3 Real) (?D3 Real) (?E3 Real) )(let (($x480992 (|cp-rel-bb.i65.i| ?A ?B ?C ?D ?E ?F ?G ?H ?I ?J ?Y2 ?Z2 ?A3 ?B3 ?C3 ?D3 ?E3)))
(let (($x378022 (not ?Y)))
(let (($x312336 (or $x378022 ?Z)))
(let (($x535626 (or (not ?A1) (and ?Y ?B1 (not ?C1)))))
(let (($x325477 (or (not ?A1) ?B1)))
(let (($x84405 (or (not ?D1) (and ?A1 ?E1 ?F1))))
(let (($x295061 (or (not ?D1) ?E1)))
(let (($x106787 (or (not ?G1) (and ?D1 ?H1 ?I1) (and ?A1 ?J1 (not ?F1)))))
(let (($x494349 (or (not ?G1) (and ?H1 (not ?J1)) (and ?J1 (not ?H1)))))
(let (($x330666 (and ?R ?U1 ?V (<= ?M1 ?K) (>= ?M1 ?K) (<= ?O1 ?L) (>= ?O1 ?L) (<= ?P1 ?M) (>= ?P1 ?M) (<= ?Q1 ?N) (>= ?Q1 ?N) (<= ?S1 ?Q) (>= ?S1 ?Q))))
(let (($x694249 (and ?Y ?T1 ?C1 (<= ?M1 ?K) (>= ?M1 ?K) (<= ?O1 ?L) (>= ?O1 ?L) (<= ?P1 ?M) (>= ?P1 ?M) (<= ?Q1 ?N) (>= ?Q1 ?N) (<= ?S1 ?Q) (>= ?S1 ?Q))))
(let (($x428335 (and ?G1 ?L1 (<= ?M1 ?N1) (>= ?M1 ?N1) (<= ?O1 ?N1) (>= ?O1 ?N1) (<= ?P1 2.0) (>= ?P1 2.0) (<= ?Q1 ?R1) (>= ?Q1 ?R1) (<= ?S1 1.0) (>= ?S1 1.0))))
(let (($x252143 (not ?K1)))
(let (($x612021 (or $x252143 (and ?L1 (not ?T1) (not ?U1)) (and ?T1 (not ?L1) (not ?U1)) (and ?U1 (not ?L1) (not ?T1)))))
(let (($x384407 (or (not ?V1) (and ?K1 ?W1 ?X1))))
(let (($x336909 (or (not ?V1) ?W1)))
(let (($x285391 (or (not ?Y1) (and ?V1 ?Z1 (not ?A2)))))
(let (($x315875 (or (not ?Y1) ?Z1)))
(let (($x900124 (or (not ?B2) (and ?Y1 ?C2 ?D2))))
(let (($x367777 (or (not ?B2) ?C2)))
(let (($x60666 (>= ?J2 ?O)))
(let (($x576069 (<= ?J2 ?O)))
(let (($x595220 (>= ?I2 ?Q1)))
(let (($x444700 (<= ?I2 ?Q1)))
(let (($x463883 (>= ?G2 ?M1)))
(let (($x520567 (<= ?G2 ?M1)))
(let (($x246491 (and ?K1 ?O2 (not ?X1) $x520567 $x463883 $x444700 $x595220 $x576069 $x60666 (<= ?L2 ?P) (>= ?L2 ?P))))
(let (($x266821 (and ?V1 ?N2 ?A2 $x520567 $x463883 $x444700 $x595220 $x576069 $x60666 (<= ?L2 ?P) (>= ?L2 ?P))))
(let (($x224736 (>= ?L2 1.0)))
(let (($x612693 (<= ?L2 1.0)))
(let (($x537063 (>= ?I2 2.0)))
(let (($x3680 (<= ?I2 2.0)))
(let (($x170833 (and ?B2 ?F2 (<= ?G2 ?H2) (>= ?G2 ?H2) $x3680 $x537063 (<= ?J2 ?K2) (>= ?J2 ?K2) $x612693 $x224736)))
(let (($x845668 (not ?E2)))
(let (($x573941 (or $x845668 $x170833 (and ?Y1 ?M2 (not ?D2) $x520567 $x463883 $x3680 $x537063 $x576069 $x60666 $x612693 $x224736) $x266821 $x246491)))
(let (($x623995 (or $x845668 (and ?F2 (not ?M2) (not ?N2) (not ?O2)) (and ?M2 (not ?F2) (not ?N2) (not ?O2)) (and ?N2 (not ?F2) (not ?M2) (not ?O2)) (and ?O2 (not ?F2) (not ?M2) (not ?N2)))))
(let (($x241707 (not ?P2)))
(let (($x417804 (or $x241707 (and ?E2 ?Q2 ?R2))))
(let (($x621787 (or $x241707 ?Q2)))
(let (($x572784 (not ?R2)))
(let (($x327671 (and ?E2 $x572784 (<= ?Y2 ?G2) (>= ?Y2 ?G2) (<= ?Z2 ?O1) (>= ?Z2 ?O1) (<= ?A3 ?P1) (>= ?A3 ?P1) (<= ?B3 ?I2) (>= ?B3 ?I2) (<= ?C3 ?J2) (>= ?C3 ?J2) (<= ?D3 ?L2) (>= ?D3 ?L2) (<= ?E3 ?S1) (>= ?E3 ?S1))))
(let (($x129791 (and ?P2 ?S2 (<= ?Y2 ?G2) (>= ?Y2 ?G2) (<= ?Z2 ?O1) (>= ?Z2 ?O1) (<= ?A3 ?P1) (>= ?A3 ?P1) (<= ?B3 ?I2) (>= ?B3 ?I2) (<= ?C3 ?J2) (>= ?C3 ?J2) (<= ?D3 ?L2) (>= ?D3 ?L2) (<= ?E3 ?S1) (>= ?E3 ?S1))))
(let (($x342539 (= ?X1 (= ?Q1 0.0))))
(let (($x455710 (= ?H2 (+ 1.0 ?M1))))
(let (($x98499 (= ?R2 (= ?J2 0.0))))
(let (($x259919 (|cp-rel-bb.i65.i| ?A ?B ?C ?D ?E ?F ?G ?H ?I ?J ?K ?L ?M ?N ?O ?P ?Q)))
(let (($x573764 (and $x259919 $x98499 (= ?K2 (ite ?J 0.0 ?O)) $x455710 (= ?D2 (= ?P 1.0)) (= ?A2 (= ?W2 0.0)) $x342539 (= ?R1 (ite ?V2 0.0 ?N)) (= ?V2 (= ?P 1.0)) (= ?I1 (= ?U2 ?K)) (= ?U2 (+ 2.0 ?L)) (= ?F1 (= ?Q 1.0)) (= ?V (or ?X ?W)) (= ?X (= ?O 0.0)) (= ?W (= ?N 0.0)) (= ?C1 (= ?T2 0.0)) (= ?U (= ?M 0.0)) (or $x129791 $x327671) $x621787 $x417804 $x623995 $x573941 $x367777 $x900124 $x315875 $x285391 $x336909 $x384407 $x612021 (or $x252143 $x428335 $x694249 $x330666) $x494349 $x106787 $x295061 $x84405 $x325477 $x535626 (or (not ?R) ?T) (or (not ?R) (and ?S ?T (not ?U))) $x312336 (or $x378022 (and ?S ?Z ?U)) (= ?S2 (= ?X2 0.0)))))
(=> $x573764 $x480992)))))))))))))))))))))))))))))))))))))))))))))))))
)
(assert (forall ((?A Real) (?B Real) (?C Real) (?D Real) (?E Real) (?F Real) (?G Real) (?H Real) (?I Real) (?J Bool) (?K Real) (?L Real) (?M Real) (?N Real) (?O Real) (?P Real) (?Q Real) (?R Bool) (?S Bool) (?T Bool) (?U Bool) (?V Bool) (?W Bool) (?X Bool) (?Y Bool) (?Z Bool) (?A1 Bool) (?B1 Bool) (?C1 Bool) (?D1 Bool) (?E1 Bool) (?F1 Bool) (?G1 Bool) (?H1 Bool) (?I1 Bool) (?J1 Real) (?K1 Real) (?L1 Real) (?M1 Real) (?N1 Real) (?O1 Real) (?P1 Real) )(let (($x224633 (|cp-rel-__UFO__0| ?A ?B ?C ?D ?E ?F ?G ?H ?J1 ?K1 ?L1 ?M1 ?N1 ?I ?O1 ?P1 ?J ?K ?L ?M ?N ?O ?P ?Q ?F1 ?G1)))
(let (($x515792 (|cp-rel-bb.i65.i| ?A ?B ?C ?D ?E ?F ?G ?H ?I ?J ?K ?L ?M ?N ?O ?P ?Q)))
(let (($x209968 (and $x515792 (= ?I1 ?F1) (= ?A1 ?H1) (= ?H1 (or ?F1 ?G1)) (= ?X (or ?G1 ?F1)) (= ?G1 (= ?O 0.0)) (= ?F1 (= ?N 0.0)) (= ?U (= ?M 0.0)) (not (= ?E1 true)) (= ?B1 true) (or (not ?B1) (and ?C1 (not ?D1)) (and ?D1 (not ?C1))) (or (not ?B1) (and ?Y ?C1) (and ?V ?D1 ?A1)) (or (not ?Y) ?Z) (or (not ?Y) (and ?V ?Z (not ?A1))) (or (not ?V) ?W) (or (not ?V) (and ?R ?W (not ?X))) (or (not ?R) ?T) (or (not ?R) (and ?S ?T (not ?U))) (= ?E1 (or ?I1 ?G1)))))
(=> $x209968 $x224633)))))
)
(assert (forall ((?A Real) (?B Real) (?C Real) (?D Real) (?E Real) (?F Real) (?G Real) (?H Real) (?I Real) (?J Bool) (?K Bool) (?L Bool) (?M Real) (?N Real) (?O Real) (?P Real) (?Q Real) (?R Real) (?S Real) (?T Real) (?U Real) (?V Real) (?W Real) (?X Real) (?Y Real) (?Z Real) (?A1 Bool) )(let (($x609067 (|cp-rel-__UFO__0| ?A ?B ?C ?D ?E ?F ?G ?H ?M ?N ?O ?P ?Q ?I ?R ?S ?J ?T ?U ?V ?W ?X ?Y ?Z ?K ?L)))
(=> (and $x609067 (= ?A1 true)) $x609067)))
)
(assert (forall ((?A Real) (?B Real) (?C Real) (?D Real) (?E Real) (?F Real) (?G Real) (?H Real) (?I Real) (?J Bool) (?K Real) (?L Real) (?M Real) (?N Real) (?O Real) (?P Real) (?Q Real) (?R Bool) (?S Bool) (?T Bool) (?U Bool) (?V Bool) (?W Bool) (?X Bool) (?Y Bool) (?Z Bool) (?A1 Bool) (?B1 Bool) (?C1 Real) (?D1 Real) )(let (($x332926 (not ?T)))
(let (($x214448 (or $x332926 ?U)))
(let (($x420737 (|cp-rel-bb.i65.i| ?A ?B ?C ?D ?E ?F ?G ?H ?I ?J ?K ?L ?M ?N ?O ?P ?Q)))
(let (($x417932 (and $x420737 (= ?D1 (+ 2.0 ?L)) (= ?A1 (= ?Q 1.0)) (= ?X (= ?C1 0.0)) (= ?S (= ?M 0.0)) (not (= ?B1 true)) (= ?Y true) (or (not ?Y) ?Z) (or (not ?Y) (and ?V ?Z ?A1)) (or (not ?V) ?W) (or (not ?V) (and ?T ?W (not ?X))) $x214448 (or $x332926 (and ?R ?U ?S)) (= ?B1 (= ?D1 ?K)))))
(=> $x417932 |cp-rel-ERROR.i.i.i.i|))))))
)
(assert (not cp-rel-ERROR.i.i.i.i))
(check-sat)
